p cnf 72 231
-3 1 0
-3 2 0
-1 -2 3 0
4 -3 0
4 -1 0
3 1 -4 0
-6 -4 0
-6 -5 0
4 5 6 0
-7 8 0
7 8 0
-10 -8 0
-10 9 0
8 -9 10 0
12 -11 0
12 -5 0
11 5 -12 0
7 12 -13 0
-7 -12 -13 0
7 -12 13 0
-7 12 13 0
14 10 0
14 13 0
-10 -13 -14 0
-15 6 0
-15 -14 0
-6 14 15 0
18 -16 0
18 17 0
16 -17 -18 0
-1 18 -19 0
1 -18 -19 0
-1 -18 19 0
1 18 19 0
15 19 -20 0
-15 -19 -20 0
15 -19 20 0
-15 19 20 0
-21 -7 0
-21 -1 0
7 1 21 0
22 3 0
22 9 0
-3 -9 -22 0
-23 -9 -24 0
23 9 -24 0
-23 9 24 0
23 -9 24 0
-26 -25 0
-26 -11 0
25 11 26 0
27 -24 0
27 -26 0
24 26 -27 0
28 8 0
28 4 0
-8 -4 -28 0
-27 28 -29 0
27 -28 -29 0
-27 -28 29 0
27 28 29 0
30 -29 0
30 -29 0
29 -30 0
-31 -3 0
-31 -25 0
3 25 31 0
-31 -4 -32 0
31 4 -32 0
-31 4 32 0
31 -4 32 0
1 32 -33 0
-1 -32 -33 0
1 -32 33 0
-1 32 33 0
30 -33 -34 0
-30 33 -34 0
30 33 34 0
-30 -33 34 0
35 11 0
35 26 0
-11 -26 -35 0
11 -36 -37 0
-11 36 -37 0
11 36 37 0
-11 -36 37 0
-35 37 -38 0
35 -37 -38 0
-35 -37 38 0
35 37 38 0
39 7 0
39 -25 0
-7 25 -39 0
40 8 0
40 39 0
-8 -39 -40 0
13 -32 -41 0
-13 32 -41 0
13 32 41 0
-13 -32 41 0
-40 41 -42 0
40 -41 -42 0
-40 -41 42 0
40 41 42 0
36 -43 -44 0
-36 43 -44 0
36 43 44 0
-36 -43 44 0
-31 4 -45 0
31 -4 -45 0
-31 -4 45 0
31 4 45 0
-46 2 0
-46 -45 0
-2 45 46 0
47 -44 0
47 46 0
44 -46 -47 0
48 42 0
48 47 0
-42 -47 -48 0
49 10 0
49 24 0
-10 -24 -49 0
5 49 -50 0
-5 -49 -50 0
5 -49 50 0
-5 49 50 0
51 -48 0
51 -50 0
48 50 -51 0
-38 51 -52 0
38 -51 -52 0
-38 -51 52 0
38 51 52 0
53 34 0
53 52 0
-34 -52 -53 0
-54 22 0
-54 -53 0
-22 53 54 0
-55 21 0
-55 -54 0
-21 54 55 0
56 11 0
56 -45 0
-11 45 -56 0
57 3 0
57 -3 0
-58 -56 0
-58 -57 0
56 57 58 0
60 -3 0
60 -59 0
3 59 -60 0
-58 60 -61 0
58 -60 -61 0
-58 -60 61 0
58 60 61 0
63 -25 0
63 -62 0
25 62 -63 0
-64 63 0
-64 -63 0
61 -64 -65 0
-61 64 -65 0
61 64 65 0
-61 -64 65 0
16 23 -66 0
-16 -23 -66 0
16 -23 66 0
-16 23 66 0
67 66 0
67 -45 0
-66 45 -67 0
-68 32 0
-68 -31 0
-32 31 68 0
67 68 -69 0
-67 -68 -69 0
67 -68 69 0
-67 68 69 0
-70 -65 0
-70 -69 0
65 69 70 0
71 -55 0
71 -70 0
55 70 -71 0
20 71 -72 0
-20 -71 -72 0
20 -71 72 0
-20 71 72 0
-12 -59 55 -5 0
-58 8 -65 0
57 14 0
3 -54 69 -30 68 -16 0
52 -3 0
50 -8 -35 0
16 11 -47 -56 0
-36 47 0
52 24 -5 0
34 65 55 0
22 50 34 -65 -69 63 0
-14 65 21 13 0
-66 41 -62 0
18 -71 -24 -68 -1 0
29 28 -48 -67 -51 0
3 -25 0
26 65 38 63 -36 0
-58 -44 0
3 61 24 0
48 14 49 0
54 26 0
-2 -68 0
12 2 -15 0
-26 -56 29 35 0
-67 -43 16 -1 23 -54 0
-30 -47 0
21 54 -72 -62 16 0
-41 -56 12 -62 -2 -15 0
-23 -4 25 0
-33 49 0
43 38 -59 -44 -45 -69 0
-37 67 57 0
-15 25 -31 52 -8 0
-69 40 8 0
47 48 -42 70 0
45 -70 0
57 8 46 -30 -15 14 0
-51 50 0
72 0
